language Essence 1.3

letting class be
        function(1 --> 9, 2 --> 9, 3 --> 6, 4 --> 8, 5 --> 2, 6 --> 7, 7 --> 5, 8 --> 3, 9 --> 2, 10 --> 5, 11 --> 3,
                 12 --> 1, 13 --> 3, 14 --> 8, 15 --> 1, 16 --> 9, 17 --> 6, 18 --> 6, 19 --> 4, 20 --> 2, 21 --> 9,
                 22 --> 1, 23 --> 6)
letting deck_length be 91
letting deck_width be 47
letting length be
        function(1 --> 1, 2 --> 1, 3 --> 1, 4 --> 1, 5 --> 1, 6 --> 3, 7 --> 1, 8 --> 1, 9 --> 6, 10 --> 3, 11 --> 1,
                 12 --> 1, 13 --> 6, 14 --> 1, 15 --> 1, 16 --> 1, 17 --> 1, 18 --> 5, 19 --> 1, 20 --> 1, 21 --> 1,
                 22 --> 18, 23 --> 1)
letting n_classes be 9
letting n_containers be 23
letting separation be function()
letting width be
        function(1 --> 1, 2 --> 1, 3 --> 1, 4 --> 1, 5 --> 1, 6 --> 25, 7 --> 1, 8 --> 1, 9 --> 25, 10 --> 1, 11 --> 1,
                 12 --> 1, 13 --> 10, 14 --> 1, 15 --> 1, 16 --> 1, 17 --> 1, 18 --> 38, 19 --> 1, 20 --> 1, 21 --> 1,
                 22 --> 39, 23 --> 1)
